41 113
1 4 6 13 24 27 32
0 6 10 23
15 19 31 32 40
7 10 15 23 33 34 37
0 8 17 32
6 7 9 10 12 29 33 37 40
0 1 5 14 37
3 5 17 34 37 40
4 14 15 19 24 30 32 33 38
5 17 21 23 26 34 38
1 3 5 14 21
14 21 23 26
5 19 24 25 34 38
0 29 37
6 8 10 11 16 25 29
2 3 8 22 38
14 22 25 32 38
4 7 9 18
17 28 36
2 8 12 29
26 27 31 34 36
9 10 11 24 27 32 35 39
15 16 35 37
1 3 9 11 34
0 8 12 21 29 30
12 14 16 28 31
9 11 20 27 36 37 38
0 20 21 26 36
18 25
5 13 14 19 24 35 38
8 24 33 37
2 20 25 34 37
0 2 4 8 16 21
3 5 8 30 37 38
3 7 9 12 20 23 31 40
21 22 29 40
18 20 26 27 38
3 5 6 7 13 22 26 30 31 33
8 9 12 15 16 26 29 33 36
21
2 5 7 34 35
